50
    1   437   437
    2   271   271
    3   253   253
    4   376   376
    5   175   175
    6   377   377
    7   272   272
    8   205   205
    9   165   165
   10   491   491
   11   219   219
   12   282   282
   13   254   254
   14   271   271
   15   457   457
   16   133   133
   17   326   326
   18   460   460
   19   367   367
   20   332   332
   21   357   357
   22   148   148
   23    68    68
   24   336   336
   25    53    53
   26   180   180
   27   317   317
   28    59    59
   29    94    94
   30   268   268
   31   214   214
   32   449   449
   33   458   458
   34   179   179
   35    93    93
   36    47    47
   37   438   438
   38   396   396
   39   315   315
   40   451   451
   41   470   470
   42    43    43
   43    45    45
   44    32    32
   45   205   205
   46   189   189
   47   232   232
   48   173   173
   49   138   138
   50   390   390
8640
